
Welcome to IBM(R) ILOG(R) CPLEX(R) Interactive Optimizer 22.1.1.0
  with Simplex, Mixed Integer & Barrier Optimizers
5725-A06 5725-A29 5724-Y48 5724-Y49 5724-Y54 5724-Y55 5655-Y21
Copyright IBM Corp. 1988, 2022.  All Rights Reserved.

Type 'help' for a list of available commands.
Type 'help' followed by a command name for more
information on commands.

CPLEX> Selected objective sense:  MINIMIZE
Selected objective  name:  00000000
Selected RHS        name:  RHS1
Selected bound      name:  BOUND
Problem 'ee.mps' read.
Read time = 0.02 sec. (3.14 ticks)
CPLEX> New value for time limit in seconds: 7200
CPLEX> New value for parallel optimization mode: -1
CPLEX> New value for default parallel thread count: 40
CPLEX> New value for mixed integer optimality gap tolerance: 1e-13
CPLEX> Version identifier: 22.1.1.0 | 2022-11-28 | 9160aff4d
CPXPARAM_Threads                                 40
CPXPARAM_Parallel                                -1
CPXPARAM_TimeLimit                               7200
CPXPARAM_MIP_Tolerances_MIPGap                   1e-13
Found incumbent of value 0.000000 after 0.00 sec. (0.31 ticks)
Tried aggregator 2 times.
MIP Presolve eliminated 183 rows and 2745 columns.
MIP Presolve modified 5862 coefficients.
Aggregator did 713 substitutions.
Reduced MIP has 3624 rows, 7744 columns, and 28667 nonzeros.
Reduced MIP has 7744 binaries, 0 generals, 0 SOSs, and 0 indicators.
Presolve time = 0.07 sec. (68.80 ticks)
Probing time = 0.03 sec. (5.30 ticks)
Tried aggregator 1 time.
Detecting symmetries...
Reduced MIP has 3624 rows, 7744 columns, and 28667 nonzeros.
Reduced MIP has 7744 binaries, 0 generals, 0 SOSs, and 0 indicators.
Presolve time = 0.03 sec. (21.95 ticks)
Probing time = 0.02 sec. (5.09 ticks)
Clique table members: 18558.
MIP emphasis: balance optimality and feasibility.
MIP search method: dynamic search.
Parallel mode: opportunistic, using up to 40 threads.
Root relaxation solution time = 0.15 sec. (111.96 ticks)

        Nodes                                         Cuts/
   Node  Left     Objective  IInf  Best Integer    Best Bound    ItCnt     Gap

*     0+    0                            0.0000  -1.31000e+13              --- 
*     0+    0                      -5.50000e+12  -1.31000e+13           138.18%
*     0+    0                      -6.48000e+12  -1.31000e+13           102.16%
*     0+    0                      -7.70000e+12  -1.31000e+13            70.13%
*     0+    0                      -8.80000e+12  -1.31000e+13            48.86%
*     0+    0                      -9.79000e+12  -1.31000e+13            33.81%
*     0+    0                      -1.08900e+13  -1.31000e+13            20.29%
*     0+    0                      -1.19900e+13  -1.31000e+13             9.26%
*     0+    0                      -1.30900e+13  -1.31000e+13             0.08%
      0     0  -1.30900e+13    89  -1.30900e+13  -1.30900e+13     2885    0.00%
*     0+    0                      -1.30900e+13  -1.30900e+13             0.00%
      0     0  -1.30900e+13   144  -1.30900e+13      Cuts: 73     3722    0.00%
      0     0  -1.30900e+13   148  -1.30900e+13      Cuts: 82     3883    0.00%
*     0+    0                      -1.30900e+13  -1.30900e+13             0.00%
*     0+    0                      -1.30900e+13  -1.30900e+13             0.00%
*     0+    0                      -1.30900e+13  -1.30900e+13             0.00%
      0     2  -1.30900e+13   164  -1.30900e+13  -1.30900e+13     4178    0.00%
Elapsed time = 2.84 sec. (1535.14 ticks, tree = 0.02 MB, solutions = 13)
    493    69  -1.30900e+13    57  -1.30900e+13  -1.30900e+13    20548    0.00%
   1969    87  -1.30900e+13    72  -1.30900e+13  -1.30900e+13    23094    0.00%
   3594   346  -1.30900e+13    18  -1.30900e+13  -1.30900e+13    81625    0.00%
   4637   342  -1.30900e+13    56  -1.30900e+13  -1.30900e+13    78873    0.00%
   5238   622        cutoff        -1.30900e+13  -1.30900e+13   163681    0.00%
   5667   874        cutoff        -1.30900e+13  -1.30900e+13   288924    0.00%
   6032   543  -1.30900e+13   230  -1.30900e+13  -1.30900e+13   326281    0.00%
   6579   418  -1.30900e+13   157  -1.30900e+13  -1.30900e+13   434629    0.00%
   7370   430        cutoff        -1.30900e+13  -1.30900e+13   453066    0.00%
  10275   447        cutoff        -1.30900e+13  -1.30900e+13   685034    0.00%
Elapsed time = 8.30 sec. (4638.20 ticks, tree = 1.37 MB, solutions = 20)
  12814   471    infeasible        -1.30900e+13  -1.30900e+13   796855    0.00%

Performing restart 1

Repeating presolve.
Tried aggregator 2 times.
MIP Presolve eliminated 312 rows and 1539 columns.
MIP Presolve modified 1683 coefficients.
Aggregator did 599 substitutions.
Reduced MIP has 2652 rows, 5506 columns, and 20458 nonzeros.
Reduced MIP has 5506 binaries, 0 generals, 0 SOSs, and 0 indicators.
Presolve time = 0.09 sec. (94.05 ticks)
Tried aggregator 1 time.
MIP Presolve eliminated 26 rows and 20 columns.
MIP Presolve modified 14 coefficients.
Reduced MIP has 2624 rows, 5480 columns, and 20379 nonzeros.
Reduced MIP has 5480 binaries, 0 generals, 0 SOSs, and 0 indicators.
Presolve time = 0.03 sec. (21.91 ticks)
Represolve time = 0.21 sec. (163.38 ticks)
  14102     0  -1.30900e+13   330  -1.30900e+13      Cuts: 48  1022602    0.00%
  14102     0  -1.30900e+13   306  -1.30900e+13      Cuts: 27  1022701    0.00%
  14102     0  -1.30900e+13   322  -1.30900e+13      Cuts: 18  1022814    0.00%
  14102     0  -1.30900e+13   322  -1.30900e+13      Cuts: 19  1022912    0.00%
  14102     0  -1.30900e+13   388  -1.30900e+13      Cuts: 12  1023002    0.00%
  14102    28        cutoff        -1.30900e+13  -1.30900e+13  1028994    0.00%
  15098     3  -1.30900e+13   151  -1.30900e+13  -1.30900e+13  1026518    0.00%

GUB cover cuts applied:  3
Clique cuts applied:  7
Cover cuts applied:  243
Flow cuts applied:  2
Mixed integer rounding cuts applied:  27
Zero-half cuts applied:  38
Lift and project cuts applied:  4
Gomory fractional cuts applied:  11

Root node processing (before b&c):
  Real time             =    1.62 sec. (1517.13 ticks)
Parallel b&c, 40 threads:
  Real time             =   12.48 sec. (8439.32 ticks)
  Sync time (average)   =    2.61 sec.
  Wait time (average)   =    0.07 sec.
                          ------------
Total (root+branch&cut) =   14.10 sec. (9956.46 ticks)

Solution pool: 20 solutions saved.

MIP - Integer optimal solution:  Objective = -1.3089999091e+13
Solution time =   14.20 sec.  Iterations = 1055833  Nodes = 15116
Deterministic time = 9956.49 ticks  (700.94 ticks/sec)

CPLEX> Solution 'p21' written to file 'ee.sol'.
CPLEX> 